(set-logic QF_UF)
(declare-fun A0 () Bool)
(declare-fun A1 () Bool)
(declare-fun A2 () Bool)
(declare-fun A3 () Bool)
(declare-fun A4 () Bool)
(declare-fun A5 () Bool)
(declare-fun A6 () Bool)
(declare-fun A8 () Bool)
(declare-fun A9 () Bool)
(declare-fun A10 () Bool)
(declare-fun A11 () Bool)
(declare-fun A12 () Bool)
(declare-fun A13 () Bool)
(declare-fun A15 () Bool)
(declare-fun A16 () Bool)
(declare-fun A17 () Bool)
(declare-fun A18 () Bool)
(declare-fun A19 () Bool)
(declare-fun A20 () Bool)
(declare-fun A21 () Bool)
(declare-fun A22 () Bool)
(declare-fun A23 () Bool)
(declare-fun A24 () Bool)
(assert (let ((.def_0 (not A17))) (let ((.def_1 (not A11))) (let ((.def_2 (and .def_1 .def_0))) (let ((.def_3 (or A19 A22))) (let ((.def_4 (not .def_3))) (let ((.def_5 (and .def_4 .def_2))) (let ((.def_6 (not .def_5))) (let ((.def_7 (not A4))) (let ((.def_8 (or .def_7 A24))) (let ((.def_9 (not A20))) (let ((.def_10 (= A11 .def_9))) (let ((.def_11 (and .def_10 .def_8))) (let ((.def_12 (not .def_11))) (let ((.def_13 (or .def_12 .def_6))) (let ((.def_14 (not .def_13))) (let ((.def_15 (not A2))) (let ((.def_16 (not A6))) (let ((.def_17 (or .def_16 .def_15))) (let ((.def_18 (not .def_17))) (let ((.def_19 (not A24))) (let ((.def_20 (and A19 .def_19))) (let ((.def_21 (and .def_20 .def_18))) (let ((.def_22 (not .def_21))) (let ((.def_23 (= A3 A13))) (let ((.def_24 (not A3))) (let ((.def_25 (= A21 .def_24))) (let ((.def_26 (not .def_25))) (let ((.def_27 (or .def_26 .def_23))) (let ((.def_28 (= .def_27 .def_22))) (let ((.def_29 (not .def_28))) (let ((.def_30 (= .def_29 .def_14))) (let ((.def_31 (not A9))) (let ((.def_32 (and A1 .def_31))) (let ((.def_33 (not .def_32))) (let ((.def_34 (and A12 A18))) (let ((.def_35 (not .def_34))) (let ((.def_36 (= .def_35 .def_33))) (let ((.def_37 (not A8))) (let ((.def_38 (or A22 .def_37))) (let ((.def_39 (not A15))) (let ((.def_40 (and .def_39 A20))) (let ((.def_41 (not .def_40))) (let ((.def_42 (and .def_41 .def_38))) (let ((.def_43 (not .def_42))) (let ((.def_44 (or .def_43 .def_36))) (let ((.def_45 (not .def_44))) (let ((.def_46 (not A18))) (let ((.def_47 (or .def_46 A16))) (let ((.def_48 (not A13))) (let ((.def_49 (= .def_48 .def_9))) (let ((.def_50 (and .def_49 .def_47))) (let ((.def_51 (not .def_50))) (let ((.def_52 (or .def_37 A8))) (let ((.def_53 (or A10 A19))) (let ((.def_54 (or .def_53 .def_52))) (let ((.def_55 (and .def_54 .def_51))) (let ((.def_56 (not .def_55))) (let ((.def_57 (and .def_56 .def_45))) (let ((.def_58 (not .def_57))) (let ((.def_59 (and .def_58 .def_30))) (let ((.def_60 (not A21))) (let ((.def_61 (or .def_60 .def_46))) (let ((.def_62 (not A22))) (let ((.def_63 (or A3 .def_62))) (let ((.def_64 (= .def_63 .def_61))) (let ((.def_65 (and .def_1 A2))) (let ((.def_66 (not .def_65))) (let ((.def_67 (and A11 A9))) (let ((.def_68 (and .def_67 .def_66))) (let ((.def_69 (= .def_68 .def_64))) (let ((.def_70 (and .def_19 A15))) (let ((.def_71 (and .def_1 A6))) (let ((.def_72 (= .def_71 .def_70))) (let ((.def_73 (not .def_72))) (let ((.def_74 (not A5))) (let ((.def_75 (or .def_46 .def_74))) (let ((.def_76 (not .def_75))) (let ((.def_77 (or A17 A17))) (let ((.def_78 (not .def_77))) (let ((.def_79 (and .def_78 .def_76))) (let ((.def_80 (= .def_79 .def_73))) (let ((.def_81 (or .def_80 .def_69))) (let ((.def_82 (not A23))) (let ((.def_83 (and .def_82 A22))) (let ((.def_84 (not .def_83))) (let ((.def_85 (and .def_39 A19))) (let ((.def_86 (or .def_85 .def_84))) (let ((.def_87 (not A16))) (let ((.def_88 (or A5 .def_87))) (let ((.def_89 (and A3 A0))) (let ((.def_90 (or .def_89 .def_88))) (let ((.def_91 (and .def_90 .def_86))) (let ((.def_92 (not .def_91))) (let ((.def_93 (or A13 A23))) (let ((.def_94 (or A22 A8))) (let ((.def_95 (or .def_94 .def_93))) (let ((.def_96 (not .def_95))) (let ((.def_97 (and A20 A3))) (let ((.def_98 (not .def_97))) (let ((.def_99 (not A0))) (let ((.def_100 (or .def_99 .def_60))) (let ((.def_101 (and .def_100 .def_98))) (let ((.def_102 (or .def_101 .def_96))) (let ((.def_103 (not .def_102))) (let ((.def_104 (and .def_103 .def_92))) (let ((.def_105 (or .def_104 .def_81))) (let ((.def_106 (and .def_105 .def_59))) (let ((.def_107 (not .def_106))) .def_107)))))))))))))))))))))))))))))))))))))))))))))))))))))))))))))))))))))))))))))))))))))))))))))))))))))))))))))
(check-sat)
